p cnf 41 134
3 1 0
3 2 0
-1 -2 -3 0
-4 5 -6 0
4 -5 -6 0
-4 -5 6 0
4 5 6 0
8 6 0
8 -7 0
-6 7 -8 0
-9 3 0
-9 -8 0
-3 8 9 0
9 -3 -10 0
-9 3 -10 0
9 3 10 0
-9 -3 10 0
10 8 -11 0
-10 -8 -11 0
10 -8 11 0
-10 8 11 0
-14 -12 0
-14 13 0
12 -13 14 0
16 -15 0
16 8 0
15 -8 -16 0
16 17 0
-16 17 0
-19 -18 0
-19 -6 0
18 6 19 0
20 -19 0
20 13 0
19 -13 -20 0
-21 -17 0
-21 20 0
17 -20 21 0
-14 21 -22 0
14 -21 -22 0
-14 -21 22 0
14 21 22 0
23 13 0
23 8 0
-13 -8 -23 0
24 -23 0
24 23 0
-7 2 -25 0
7 -2 -25 0
-7 -2 25 0
7 2 25 0
-19 -4 -26 0
19 4 -26 0
-19 4 26 0
19 -4 26 0
-27 25 0
-27 -26 0
-25 26 27 0
28 -13 0
28 2 0
13 -2 -28 0
-29 3 0
-29 -5 0
-3 5 29 0
-30 -5 0
-30 -7 0
5 7 30 0
-31 29 0
-31 -30 0
-29 30 31 0
-32 28 0
-32 -31 0
-28 31 32 0
33 -27 0
33 -32 0
27 32 -33 0
34 24 0
34 33 0
-24 -33 -34 0
-22 -34 -35 0
22 34 -35 0
-22 34 35 0
22 -34 35 0
36 6 0
36 9 0
-6 -9 -36 0
-6 -37 -38 0
6 37 -38 0
-6 37 38 0
6 -37 38 0
-36 -38 -39 0
36 38 -39 0
-36 38 39 0
36 -38 39 0
35 39 -40 0
-35 -39 -40 0
35 -39 40 0
-35 39 40 0
11 40 -41 0
-11 -40 -41 0
11 -40 41 0
-11 40 41 0
1 10 0
5 28 -17 34 30 26 0
-37 -27 -11 -19 0
41 -16 22 -25 33 0
26 33 14 21 0
4 21 19 -11 26 -39 0
26 -12 8 0
8 9 -5 -1 41 -34 0
16 22 15 0
31 -35 -13 10 19 0
-27 -36 41 -9 -24 25 0
7 14 -21 13 -29 0
12 19 -23 34 9 0
-35 -10 21 0
-7 -21 0
-9 18 0
19 -3 36 25 -27 0
30 36 0
14 -10 1 -27 0
6 -12 -13 0
-30 36 -19 22 -15 32 0
23 32 0
-6 29 26 0
1 -3 0
-5 26 19 -39 0
22 30 -36 0
-4 30 0
19 -4 -3 2 0
21 -1 -32 0
41 -24 33 0
-37 18 3 31 17 0
41 0
